c SAT Generator for power-law distributed variable frequencies
c -g u -v 20 -c 91 -k 3 -p 2.750000 -b 3.200000 -f /home/schmidt/Devel/ni-kop-sat/data/ensemble/ruf20-91/ruf20-91-800 -u 1 -U 1 -s 552291397
p cnf 20 91
2 14 -18 0
3 7 -18 0
-13 -16 -20 0
10 15 -17 0
1 -15 20 0
-1 -3 20 0
-1 -2 -18 0
1 11 12 0
-3 14 -18 0
-1 5 14 0
-5 -7 -13 0
-1 -2 9 0
3 -7 12 0
2 7 -20 0
2 12 18 0
2 3 -13 0
9 -12 15 0
-1 3 -14 0
2 -12 14 0
-9 -13 -17 0
9 12 -17 0
-10 -12 -16 0
-3 -12 -13 0
-4 -6 10 0
7 8 15 0
2 -5 -20 0
7 -12 -16 0
-3 8 -14 0
-3 8 11 0
6 12 17 0
2 -5 -6 0
1 -10 -15 0
-6 7 9 0
4 -9 -17 0
16 18 -19 0
10 12 -17 0
10 -13 -17 0
-1 7 -13 0
8 14 -17 0
5 11 -20 0
10 12 16 0
-4 -5 -7 0
-7 -8 -12 0
16 -19 -20 0
6 -11 16 0
1 -4 -10 0
2 9 -12 0
-6 -13 -18 0
-6 -17 19 0
-10 -16 -18 0
9 11 -17 0
6 -8 -15 0
15 16 -20 0
-14 17 -18 0
5 6 -9 0
4 -11 13 0
-1 12 18 0
7 -9 -16 0
12 -15 -18 0
-6 -10 15 0
-5 9 10 0
5 -8 12 0
3 9 -14 0
-9 -19 -20 0
-1 -16 -19 0
-6 15 -16 0
10 -14 -18 0
-1 12 13 0
-2 -3 -20 0
8 -9 -20 0
-10 13 18 0
5 -8 13 0
3 -12 -15 0
-1 7 -14 0
8 15 17 0
-4 -5 -18 0
-9 -13 -19 0
5 -6 17 0
-8 -15 -18 0
-2 4 15 0
4 -10 -12 0
-3 -9 15 0
-1 3 20 0
-1 5 8 0
-8 9 -10 0
8 10 -11 0
1 -7 19 0
12 14 -15 0
-12 14 -20 0
1 -2 11 0
6 14 16 0
